\ LP format - for model browsing. Use MPS format to capture full model detail.
Minimize
  p0 + p1 + p2 + p3 + p4 + p5 + p6
Subject To
 R0: x0,1_5 + x0,2_5 + x0,3_5 + x0,4_5 + x0,5_5 + x0,6_5 + x1,2_5 + x1,3_5
   + x1,4_5 + x1,5_5 + x1,6_5 + x2,3_5 + x2,4_5 + x2,5_5 + x2,6_5 + x3,4_5
   + x3,5_5 + x3,6_5 + x4,5_5 + x4,6_5 + x5,6_5 = 1
 R1: x0,1_7 + x0,2_7 + x0,3_7 + x0,4_7 + x0,5_7 + x0,6_7 + x1,2_7 + x1,3_7
   + x1,4_7 + x1,5_7 + x1,6_7 + x2,3_7 + x2,4_7 + x2,5_7 + x2,6_7 + x3,4_7
   + x3,5_7 + x3,6_7 + x4,5_7 + x4,6_7 + x5,6_7 = 1
 R2: x0,1_18 + x0,2_18 + x0,3_18 + x0,4_18 + x0,5_18 + x0,6_18 + x1,2_18
   + x1,3_18 + x1,4_18 + x1,5_18 + x1,6_18 + x2,3_18 + x2,4_18 + x2,5_18
   + x2,6_18 + x3,4_18 + x3,5_18 + x3,6_18 + x4,5_18 + x4,6_18 + x5,6_18
   = 1
 R3: x0,1_20 + x0,2_20 + x0,3_20 + x0,4_20 + x0,5_20 + x0,6_20 + x1,2_20
   + x1,3_20 + x1,4_20 + x1,5_20 + x1,6_20 + x2,3_20 + x2,4_20 + x2,5_20
   + x2,6_20 + x3,4_20 + x3,5_20 + x3,6_20 + x4,5_20 + x4,6_20 + x5,6_20
   = 1
 R4: x0,1_21 + x0,2_21 + x0,3_21 + x0,4_21 + x0,5_21 + x0,6_21 + x1,2_21
   + x1,3_21 + x1,4_21 + x1,5_21 + x1,6_21 + x2,3_21 + x2,4_21 + x2,5_21
   + x2,6_21 + x3,4_21 + x3,5_21 + x3,6_21 + x4,5_21 + x4,6_21 + x5,6_21
   = 1
 R5: x0,1_24 + x0,2_24 + x0,3_24 + x0,4_24 + x0,5_24 + x0,6_24 + x1,2_24
   + x1,3_24 + x1,4_24 + x1,5_24 + x1,6_24 + x2,3_24 + x2,4_24 + x2,5_24
   + x2,6_24 + x3,4_24 + x3,5_24 + x3,6_24 + x4,5_24 + x4,6_24 + x5,6_24
   = 1
 R6: x0,1_29 + x0,2_29 + x0,3_29 + x0,4_29 + x0,5_29 + x0,6_29 + x1,2_29
   + x1,3_29 + x1,4_29 + x1,5_29 + x1,6_29 + x2,3_29 + x2,4_29 + x2,5_29
   + x2,6_29 + x3,4_29 + x3,5_29 + x3,6_29 + x4,5_29 + x4,6_29 + x5,6_29
   = 1
 R7: x0,1_39 + x0,2_39 + x0,3_39 + x0,4_39 + x0,5_39 + x0,6_39 + x1,2_39
   + x1,3_39 + x1,4_39 + x1,5_39 + x1,6_39 + x2,3_39 + x2,4_39 + x2,5_39
   + x2,6_39 + x3,4_39 + x3,5_39 + x3,6_39 + x4,5_39 + x4,6_39 + x5,6_39
   = 1
 R8: x0,1_44 + x0,2_44 + x0,3_44 + x0,4_44 + x0,5_44 + x0,6_44 + x1,2_44
   + x1,3_44 + x1,4_44 + x1,5_44 + x1,6_44 + x2,3_44 + x2,4_44 + x2,5_44
   + x2,6_44 + x3,4_44 + x3,5_44 + x3,6_44 + x4,5_44 + x4,6_44 + x5,6_44
   = 1
 R9: x0,1_45 + x0,2_45 + x0,3_45 + x0,4_45 + x0,5_45 + x0,6_45 + x1,2_45
   + x1,3_45 + x1,4_45 + x1,5_45 + x1,6_45 + x2,3_45 + x2,4_45 + x2,5_45
   + x2,6_45 + x3,4_45 + x3,5_45 + x3,6_45 + x4,5_45 + x4,6_45 + x5,6_45
   = 1
 R10: x0,1_50 + x0,2_50 + x0,3_50 + x0,4_50 + x0,5_50 + x0,6_50 + x1,2_50
   + x1,3_50 + x1,4_50 + x1,5_50 + x1,6_50 + x2,3_50 + x2,4_50 + x2,5_50
   + x2,6_50 + x3,4_50 + x3,5_50 + x3,6_50 + x4,5_50 + x4,6_50 + x5,6_50
   = 1
 R11: x0,1_64 + x0,2_64 + x0,3_64 + x0,4_64 + x0,5_64 + x0,6_64 + x1,2_64
   + x1,3_64 + x1,4_64 + x1,5_64 + x1,6_64 + x2,3_64 + x2,4_64 + x2,5_64
   + x2,6_64 + x3,4_64 + x3,5_64 + x3,6_64 + x4,5_64 + x4,6_64 + x5,6_64
   = 1
 R12: x0,1_66 + x0,2_66 + x0,3_66 + x0,4_66 + x0,5_66 + x0,6_66 + x1,2_66
   + x1,3_66 + x1,4_66 + x1,5_66 + x1,6_66 + x2,3_66 + x2,4_66 + x2,5_66
   + x2,6_66 + x3,4_66 + x3,5_66 + x3,6_66 + x4,5_66 + x4,6_66 + x5,6_66
   = 1
 R13: x0,1_71 + x0,2_71 + x0,3_71 + x0,4_71 + x0,5_71 + x0,6_71 + x1,2_71
   + x1,3_71 + x1,4_71 + x1,5_71 + x1,6_71 + x2,3_71 + x2,4_71 + x2,5_71
   + x2,6_71 + x3,4_71 + x3,5_71 + x3,6_71 + x4,5_71 + x4,6_71 + x5,6_71
   = 1
 R14: x0,1_5 + x0,1_7 + x0,1_18 + x0,1_20 + x0,1_21 + x0,1_24 + x0,1_29
   + x0,1_39 + x0,1_44 + x0,1_45 + x0,1_50 + x0,1_64 + x0,1_66 + x0,1_71
   <= 1
 R15: x0,2_5 + x0,2_7 + x0,2_18 + x0,2_20 + x0,2_21 + x0,2_24 + x0,2_29
   + x0,2_39 + x0,2_44 + x0,2_45 + x0,2_50 + x0,2_64 + x0,2_66 + x0,2_71
   <= 1
 R16: x0,3_5 + x0,3_7 + x0,3_18 + x0,3_20 + x0,3_21 + x0,3_24 + x0,3_29
   + x0,3_39 + x0,3_44 + x0,3_45 + x0,3_50 + x0,3_64 + x0,3_66 + x0,3_71
   <= 1
 R17: x0,4_5 + x0,4_7 + x0,4_18 + x0,4_20 + x0,4_21 + x0,4_24 + x0,4_29
   + x0,4_39 + x0,4_44 + x0,4_45 + x0,4_50 + x0,4_64 + x0,4_66 + x0,4_71
   <= 1
 R18: x0,5_5 + x0,5_7 + x0,5_18 + x0,5_20 + x0,5_21 + x0,5_24 + x0,5_29
   + x0,5_39 + x0,5_44 + x0,5_45 + x0,5_50 + x0,5_64 + x0,5_66 + x0,5_71
   <= 1
 R19: x0,6_5 + x0,6_7 + x0,6_18 + x0,6_20 + x0,6_21 + x0,6_24 + x0,6_29
   + x0,6_39 + x0,6_44 + x0,6_45 + x0,6_50 + x0,6_64 + x0,6_66 + x0,6_71
   <= 1
 R20: x1,2_5 + x1,2_7 + x1,2_18 + x1,2_20 + x1,2_21 + x1,2_24 + x1,2_29
   + x1,2_39 + x1,2_44 + x1,2_45 + x1,2_50 + x1,2_64 + x1,2_66 + x1,2_71
   <= 1
 R21: x1,3_5 + x1,3_7 + x1,3_18 + x1,3_20 + x1,3_21 + x1,3_24 + x1,3_29
   + x1,3_39 + x1,3_44 + x1,3_45 + x1,3_50 + x1,3_64 + x1,3_66 + x1,3_71
   <= 1
 R22: x1,4_5 + x1,4_7 + x1,4_18 + x1,4_20 + x1,4_21 + x1,4_24 + x1,4_29
   + x1,4_39 + x1,4_44 + x1,4_45 + x1,4_50 + x1,4_64 + x1,4_66 + x1,4_71
   <= 1
 R23: x1,5_5 + x1,5_7 + x1,5_18 + x1,5_20 + x1,5_21 + x1,5_24 + x1,5_29
   + x1,5_39 + x1,5_44 + x1,5_45 + x1,5_50 + x1,5_64 + x1,5_66 + x1,5_71
   <= 1
 R24: x1,6_5 + x1,6_7 + x1,6_18 + x1,6_20 + x1,6_21 + x1,6_24 + x1,6_29
   + x1,6_39 + x1,6_44 + x1,6_45 + x1,6_50 + x1,6_64 + x1,6_66 + x1,6_71
   <= 1
 R25: x2,3_5 + x2,3_7 + x2,3_18 + x2,3_20 + x2,3_21 + x2,3_24 + x2,3_29
   + x2,3_39 + x2,3_44 + x2,3_45 + x2,3_50 + x2,3_64 + x2,3_66 + x2,3_71
   <= 1
 R26: x2,4_5 + x2,4_7 + x2,4_18 + x2,4_20 + x2,4_21 + x2,4_24 + x2,4_29
   + x2,4_39 + x2,4_44 + x2,4_45 + x2,4_50 + x2,4_64 + x2,4_66 + x2,4_71
   <= 1
 R27: x2,5_5 + x2,5_7 + x2,5_18 + x2,5_20 + x2,5_21 + x2,5_24 + x2,5_29
   + x2,5_39 + x2,5_44 + x2,5_45 + x2,5_50 + x2,5_64 + x2,5_66 + x2,5_71
   <= 1
 R28: x2,6_5 + x2,6_7 + x2,6_18 + x2,6_20 + x2,6_21 + x2,6_24 + x2,6_29
   + x2,6_39 + x2,6_44 + x2,6_45 + x2,6_50 + x2,6_64 + x2,6_66 + x2,6_71
   <= 1
 R29: x3,4_5 + x3,4_7 + x3,4_18 + x3,4_20 + x3,4_21 + x3,4_24 + x3,4_29
   + x3,4_39 + x3,4_44 + x3,4_45 + x3,4_50 + x3,4_64 + x3,4_66 + x3,4_71
   <= 1
 R30: x3,5_5 + x3,5_7 + x3,5_18 + x3,5_20 + x3,5_21 + x3,5_24 + x3,5_29
   + x3,5_39 + x3,5_44 + x3,5_45 + x3,5_50 + x3,5_64 + x3,5_66 + x3,5_71
   <= 1
 R31: x3,6_5 + x3,6_7 + x3,6_18 + x3,6_20 + x3,6_21 + x3,6_24 + x3,6_29
   + x3,6_39 + x3,6_44 + x3,6_45 + x3,6_50 + x3,6_64 + x3,6_66 + x3,6_71
   <= 1
 R32: x4,5_5 + x4,5_7 + x4,5_18 + x4,5_20 + x4,5_21 + x4,5_24 + x4,5_29
   + x4,5_39 + x4,5_44 + x4,5_45 + x4,5_50 + x4,5_64 + x4,5_66 + x4,5_71
   <= 1
 R33: x4,6_5 + x4,6_7 + x4,6_18 + x4,6_20 + x4,6_21 + x4,6_24 + x4,6_29
   + x4,6_39 + x4,6_44 + x4,6_45 + x4,6_50 + x4,6_64 + x4,6_66 + x4,6_71
   <= 1
 R34: x5,6_5 + x5,6_7 + x5,6_18 + x5,6_20 + x5,6_21 + x5,6_24 + x5,6_29
   + x5,6_39 + x5,6_44 + x5,6_45 + x5,6_50 + x5,6_64 + x5,6_66 + x5,6_71
   <= 1
 R35: p0 - p1 <= -1
 R36: - 5 x0,1_5 - p0 + p1 >= 0
 R37: 503 x0,1_5 - p0 + p1 <= 508
 R38: - 7 x0,1_7 - p0 + p1 >= 0
 R39: 503 x0,1_7 - p0 + p1 <= 510
 R40: - 18 x0,1_18 - p0 + p1 >= 0
 R41: 503 x0,1_18 - p0 + p1 <= 521
 R42: - 20 x0,1_20 - p0 + p1 >= 0
 R43: 503 x0,1_20 - p0 + p1 <= 523
 R44: - 21 x0,1_21 - p0 + p1 >= 0
 R45: 503 x0,1_21 - p0 + p1 <= 524
 R46: - 24 x0,1_24 - p0 + p1 >= 0
 R47: 503 x0,1_24 - p0 + p1 <= 527
 R48: - 29 x0,1_29 - p0 + p1 >= 0
 R49: 503 x0,1_29 - p0 + p1 <= 532
 R50: - 39 x0,1_39 - p0 + p1 >= 0
 R51: 503 x0,1_39 - p0 + p1 <= 542
 R52: - 44 x0,1_44 - p0 + p1 >= 0
 R53: 503 x0,1_44 - p0 + p1 <= 547
 R54: - 45 x0,1_45 - p0 + p1 >= 0
 R55: 503 x0,1_45 - p0 + p1 <= 548
 R56: - 50 x0,1_50 - p0 + p1 >= 0
 R57: 503 x0,1_50 - p0 + p1 <= 553
 R58: - 64 x0,1_64 - p0 + p1 >= 0
 R59: 503 x0,1_64 - p0 + p1 <= 567
 R60: - 66 x0,1_66 - p0 + p1 >= 0
 R61: 503 x0,1_66 - p0 + p1 <= 569
 R62: - 71 x0,1_71 - p0 + p1 >= 0
 R63: 503 x0,1_71 - p0 + p1 <= 574
 R64: p0 - p2 <= -1
 R65: - 5 x0,2_5 - p0 + p2 >= 0
 R66: 503 x0,2_5 - p0 + p2 <= 508
 R67: - 7 x0,2_7 - p0 + p2 >= 0
 R68: 503 x0,2_7 - p0 + p2 <= 510
 R69: - 18 x0,2_18 - p0 + p2 >= 0
 R70: 503 x0,2_18 - p0 + p2 <= 521
 R71: - 20 x0,2_20 - p0 + p2 >= 0
 R72: 503 x0,2_20 - p0 + p2 <= 523
 R73: - 21 x0,2_21 - p0 + p2 >= 0
 R74: 503 x0,2_21 - p0 + p2 <= 524
 R75: - 24 x0,2_24 - p0 + p2 >= 0
 R76: 503 x0,2_24 - p0 + p2 <= 527
 R77: - 29 x0,2_29 - p0 + p2 >= 0
 R78: 503 x0,2_29 - p0 + p2 <= 532
 R79: - 39 x0,2_39 - p0 + p2 >= 0
 R80: 503 x0,2_39 - p0 + p2 <= 542
 R81: - 44 x0,2_44 - p0 + p2 >= 0
 R82: 503 x0,2_44 - p0 + p2 <= 547
 R83: - 45 x0,2_45 - p0 + p2 >= 0
 R84: 503 x0,2_45 - p0 + p2 <= 548
 R85: - 50 x0,2_50 - p0 + p2 >= 0
 R86: 503 x0,2_50 - p0 + p2 <= 553
 R87: - 64 x0,2_64 - p0 + p2 >= 0
 R88: 503 x0,2_64 - p0 + p2 <= 567
 R89: - 66 x0,2_66 - p0 + p2 >= 0
 R90: 503 x0,2_66 - p0 + p2 <= 569
 R91: - 71 x0,2_71 - p0 + p2 >= 0
 R92: 503 x0,2_71 - p0 + p2 <= 574
 R93: p0 - p3 <= -1
 R94: - 5 x0,3_5 - p0 + p3 >= 0
 R95: 503 x0,3_5 - p0 + p3 <= 508
 R96: - 7 x0,3_7 - p0 + p3 >= 0
 R97: 503 x0,3_7 - p0 + p3 <= 510
 R98: - 18 x0,3_18 - p0 + p3 >= 0
 R99: 503 x0,3_18 - p0 + p3 <= 521
 R100: - 20 x0,3_20 - p0 + p3 >= 0
 R101: 503 x0,3_20 - p0 + p3 <= 523
 R102: - 21 x0,3_21 - p0 + p3 >= 0
 R103: 503 x0,3_21 - p0 + p3 <= 524
 R104: - 24 x0,3_24 - p0 + p3 >= 0
 R105: 503 x0,3_24 - p0 + p3 <= 527
 R106: - 29 x0,3_29 - p0 + p3 >= 0
 R107: 503 x0,3_29 - p0 + p3 <= 532
 R108: - 39 x0,3_39 - p0 + p3 >= 0
 R109: 503 x0,3_39 - p0 + p3 <= 542
 R110: - 44 x0,3_44 - p0 + p3 >= 0
 R111: 503 x0,3_44 - p0 + p3 <= 547
 R112: - 45 x0,3_45 - p0 + p3 >= 0
 R113: 503 x0,3_45 - p0 + p3 <= 548
 R114: - 50 x0,3_50 - p0 + p3 >= 0
 R115: 503 x0,3_50 - p0 + p3 <= 553
 R116: - 64 x0,3_64 - p0 + p3 >= 0
 R117: 503 x0,3_64 - p0 + p3 <= 567
 R118: - 66 x0,3_66 - p0 + p3 >= 0
 R119: 503 x0,3_66 - p0 + p3 <= 569
 R120: - 71 x0,3_71 - p0 + p3 >= 0
 R121: 503 x0,3_71 - p0 + p3 <= 574
 R122: p0 - p4 <= -1
 R123: - 5 x0,4_5 - p0 + p4 >= 0
 R124: 503 x0,4_5 - p0 + p4 <= 508
 R125: - 7 x0,4_7 - p0 + p4 >= 0
 R126: 503 x0,4_7 - p0 + p4 <= 510
 R127: - 18 x0,4_18 - p0 + p4 >= 0
 R128: 503 x0,4_18 - p0 + p4 <= 521
 R129: - 20 x0,4_20 - p0 + p4 >= 0
 R130: 503 x0,4_20 - p0 + p4 <= 523
 R131: - 21 x0,4_21 - p0 + p4 >= 0
 R132: 503 x0,4_21 - p0 + p4 <= 524
 R133: - 24 x0,4_24 - p0 + p4 >= 0
 R134: 503 x0,4_24 - p0 + p4 <= 527
 R135: - 29 x0,4_29 - p0 + p4 >= 0
 R136: 503 x0,4_29 - p0 + p4 <= 532
 R137: - 39 x0,4_39 - p0 + p4 >= 0
 R138: 503 x0,4_39 - p0 + p4 <= 542
 R139: - 44 x0,4_44 - p0 + p4 >= 0
 R140: 503 x0,4_44 - p0 + p4 <= 547
 R141: - 45 x0,4_45 - p0 + p4 >= 0
 R142: 503 x0,4_45 - p0 + p4 <= 548
 R143: - 50 x0,4_50 - p0 + p4 >= 0
 R144: 503 x0,4_50 - p0 + p4 <= 553
 R145: - 64 x0,4_64 - p0 + p4 >= 0
 R146: 503 x0,4_64 - p0 + p4 <= 567
 R147: - 66 x0,4_66 - p0 + p4 >= 0
 R148: 503 x0,4_66 - p0 + p4 <= 569
 R149: - 71 x0,4_71 - p0 + p4 >= 0
 R150: 503 x0,4_71 - p0 + p4 <= 574
 R151: p0 - p5 <= -1
 R152: - 5 x0,5_5 - p0 + p5 >= 0
 R153: 503 x0,5_5 - p0 + p5 <= 508
 R154: - 7 x0,5_7 - p0 + p5 >= 0
 R155: 503 x0,5_7 - p0 + p5 <= 510
 R156: - 18 x0,5_18 - p0 + p5 >= 0
 R157: 503 x0,5_18 - p0 + p5 <= 521
 R158: - 20 x0,5_20 - p0 + p5 >= 0
 R159: 503 x0,5_20 - p0 + p5 <= 523
 R160: - 21 x0,5_21 - p0 + p5 >= 0
 R161: 503 x0,5_21 - p0 + p5 <= 524
 R162: - 24 x0,5_24 - p0 + p5 >= 0
 R163: 503 x0,5_24 - p0 + p5 <= 527
 R164: - 29 x0,5_29 - p0 + p5 >= 0
 R165: 503 x0,5_29 - p0 + p5 <= 532
 R166: - 39 x0,5_39 - p0 + p5 >= 0
 R167: 503 x0,5_39 - p0 + p5 <= 542
 R168: - 44 x0,5_44 - p0 + p5 >= 0
 R169: 503 x0,5_44 - p0 + p5 <= 547
 R170: - 45 x0,5_45 - p0 + p5 >= 0
 R171: 503 x0,5_45 - p0 + p5 <= 548
 R172: - 50 x0,5_50 - p0 + p5 >= 0
 R173: 503 x0,5_50 - p0 + p5 <= 553
 R174: - 64 x0,5_64 - p0 + p5 >= 0
 R175: 503 x0,5_64 - p0 + p5 <= 567
 R176: - 66 x0,5_66 - p0 + p5 >= 0
 R177: 503 x0,5_66 - p0 + p5 <= 569
 R178: - 71 x0,5_71 - p0 + p5 >= 0
 R179: 503 x0,5_71 - p0 + p5 <= 574
 R180: p0 - p6 <= -1
 R181: - 5 x0,6_5 - p0 + p6 >= 0
 R182: 503 x0,6_5 - p0 + p6 <= 508
 R183: - 7 x0,6_7 - p0 + p6 >= 0
 R184: 503 x0,6_7 - p0 + p6 <= 510
 R185: - 18 x0,6_18 - p0 + p6 >= 0
 R186: 503 x0,6_18 - p0 + p6 <= 521
 R187: - 20 x0,6_20 - p0 + p6 >= 0
 R188: 503 x0,6_20 - p0 + p6 <= 523
 R189: - 21 x0,6_21 - p0 + p6 >= 0
 R190: 503 x0,6_21 - p0 + p6 <= 524
 R191: - 24 x0,6_24 - p0 + p6 >= 0
 R192: 503 x0,6_24 - p0 + p6 <= 527
 R193: - 29 x0,6_29 - p0 + p6 >= 0
 R194: 503 x0,6_29 - p0 + p6 <= 532
 R195: - 39 x0,6_39 - p0 + p6 >= 0
 R196: 503 x0,6_39 - p0 + p6 <= 542
 R197: - 44 x0,6_44 - p0 + p6 >= 0
 R198: 503 x0,6_44 - p0 + p6 <= 547
 R199: - 45 x0,6_45 - p0 + p6 >= 0
 R200: 503 x0,6_45 - p0 + p6 <= 548
 R201: - 50 x0,6_50 - p0 + p6 >= 0
 R202: 503 x0,6_50 - p0 + p6 <= 553
 R203: - 64 x0,6_64 - p0 + p6 >= 0
 R204: 503 x0,6_64 - p0 + p6 <= 567
 R205: - 66 x0,6_66 - p0 + p6 >= 0
 R206: 503 x0,6_66 - p0 + p6 <= 569
 R207: - 71 x0,6_71 - p0 + p6 >= 0
 R208: 503 x0,6_71 - p0 + p6 <= 574
 R209: p1 - p2 <= -1
 R210: - 5 x1,2_5 - p1 + p2 >= 0
 R211: 503 x1,2_5 - p1 + p2 <= 508
 R212: - 7 x1,2_7 - p1 + p2 >= 0
 R213: 503 x1,2_7 - p1 + p2 <= 510
 R214: - 18 x1,2_18 - p1 + p2 >= 0
 R215: 503 x1,2_18 - p1 + p2 <= 521
 R216: - 20 x1,2_20 - p1 + p2 >= 0
 R217: 503 x1,2_20 - p1 + p2 <= 523
 R218: - 21 x1,2_21 - p1 + p2 >= 0
 R219: 503 x1,2_21 - p1 + p2 <= 524
 R220: - 24 x1,2_24 - p1 + p2 >= 0
 R221: 503 x1,2_24 - p1 + p2 <= 527
 R222: - 29 x1,2_29 - p1 + p2 >= 0
 R223: 503 x1,2_29 - p1 + p2 <= 532
 R224: - 39 x1,2_39 - p1 + p2 >= 0
 R225: 503 x1,2_39 - p1 + p2 <= 542
 R226: - 44 x1,2_44 - p1 + p2 >= 0
 R227: 503 x1,2_44 - p1 + p2 <= 547
 R228: - 45 x1,2_45 - p1 + p2 >= 0
 R229: 503 x1,2_45 - p1 + p2 <= 548
 R230: - 50 x1,2_50 - p1 + p2 >= 0
 R231: 503 x1,2_50 - p1 + p2 <= 553
 R232: - 64 x1,2_64 - p1 + p2 >= 0
 R233: 503 x1,2_64 - p1 + p2 <= 567
 R234: - 66 x1,2_66 - p1 + p2 >= 0
 R235: 503 x1,2_66 - p1 + p2 <= 569
 R236: - 71 x1,2_71 - p1 + p2 >= 0
 R237: 503 x1,2_71 - p1 + p2 <= 574
 R238: p1 - p3 <= -1
 R239: - 5 x1,3_5 - p1 + p3 >= 0
 R240: 503 x1,3_5 - p1 + p3 <= 508
 R241: - 7 x1,3_7 - p1 + p3 >= 0
 R242: 503 x1,3_7 - p1 + p3 <= 510
 R243: - 18 x1,3_18 - p1 + p3 >= 0
 R244: 503 x1,3_18 - p1 + p3 <= 521
 R245: - 20 x1,3_20 - p1 + p3 >= 0
 R246: 503 x1,3_20 - p1 + p3 <= 523
 R247: - 21 x1,3_21 - p1 + p3 >= 0
 R248: 503 x1,3_21 - p1 + p3 <= 524
 R249: - 24 x1,3_24 - p1 + p3 >= 0
 R250: 503 x1,3_24 - p1 + p3 <= 527
 R251: - 29 x1,3_29 - p1 + p3 >= 0
 R252: 503 x1,3_29 - p1 + p3 <= 532
 R253: - 39 x1,3_39 - p1 + p3 >= 0
 R254: 503 x1,3_39 - p1 + p3 <= 542
 R255: - 44 x1,3_44 - p1 + p3 >= 0
 R256: 503 x1,3_44 - p1 + p3 <= 547
 R257: - 45 x1,3_45 - p1 + p3 >= 0
 R258: 503 x1,3_45 - p1 + p3 <= 548
 R259: - 50 x1,3_50 - p1 + p3 >= 0
 R260: 503 x1,3_50 - p1 + p3 <= 553
 R261: - 64 x1,3_64 - p1 + p3 >= 0
 R262: 503 x1,3_64 - p1 + p3 <= 567
 R263: - 66 x1,3_66 - p1 + p3 >= 0
 R264: 503 x1,3_66 - p1 + p3 <= 569
 R265: - 71 x1,3_71 - p1 + p3 >= 0
 R266: 503 x1,3_71 - p1 + p3 <= 574
 R267: p1 - p4 <= -1
 R268: - 5 x1,4_5 - p1 + p4 >= 0
 R269: 503 x1,4_5 - p1 + p4 <= 508
 R270: - 7 x1,4_7 - p1 + p4 >= 0
 R271: 503 x1,4_7 - p1 + p4 <= 510
 R272: - 18 x1,4_18 - p1 + p4 >= 0
 R273: 503 x1,4_18 - p1 + p4 <= 521
 R274: - 20 x1,4_20 - p1 + p4 >= 0
 R275: 503 x1,4_20 - p1 + p4 <= 523
 R276: - 21 x1,4_21 - p1 + p4 >= 0
 R277: 503 x1,4_21 - p1 + p4 <= 524
 R278: - 24 x1,4_24 - p1 + p4 >= 0
 R279: 503 x1,4_24 - p1 + p4 <= 527
 R280: - 29 x1,4_29 - p1 + p4 >= 0
 R281: 503 x1,4_29 - p1 + p4 <= 532
 R282: - 39 x1,4_39 - p1 + p4 >= 0
 R283: 503 x1,4_39 - p1 + p4 <= 542
 R284: - 44 x1,4_44 - p1 + p4 >= 0
 R285: 503 x1,4_44 - p1 + p4 <= 547
 R286: - 45 x1,4_45 - p1 + p4 >= 0
 R287: 503 x1,4_45 - p1 + p4 <= 548
 R288: - 50 x1,4_50 - p1 + p4 >= 0
 R289: 503 x1,4_50 - p1 + p4 <= 553
 R290: - 64 x1,4_64 - p1 + p4 >= 0
 R291: 503 x1,4_64 - p1 + p4 <= 567
 R292: - 66 x1,4_66 - p1 + p4 >= 0
 R293: 503 x1,4_66 - p1 + p4 <= 569
 R294: - 71 x1,4_71 - p1 + p4 >= 0
 R295: 503 x1,4_71 - p1 + p4 <= 574
 R296: p1 - p5 <= -1
 R297: - 5 x1,5_5 - p1 + p5 >= 0
 R298: 503 x1,5_5 - p1 + p5 <= 508
 R299: - 7 x1,5_7 - p1 + p5 >= 0
 R300: 503 x1,5_7 - p1 + p5 <= 510
 R301: - 18 x1,5_18 - p1 + p5 >= 0
 R302: 503 x1,5_18 - p1 + p5 <= 521
 R303: - 20 x1,5_20 - p1 + p5 >= 0
 R304: 503 x1,5_20 - p1 + p5 <= 523
 R305: - 21 x1,5_21 - p1 + p5 >= 0
 R306: 503 x1,5_21 - p1 + p5 <= 524
 R307: - 24 x1,5_24 - p1 + p5 >= 0
 R308: 503 x1,5_24 - p1 + p5 <= 527
 R309: - 29 x1,5_29 - p1 + p5 >= 0
 R310: 503 x1,5_29 - p1 + p5 <= 532
 R311: - 39 x1,5_39 - p1 + p5 >= 0
 R312: 503 x1,5_39 - p1 + p5 <= 542
 R313: - 44 x1,5_44 - p1 + p5 >= 0
 R314: 503 x1,5_44 - p1 + p5 <= 547
 R315: - 45 x1,5_45 - p1 + p5 >= 0
 R316: 503 x1,5_45 - p1 + p5 <= 548
 R317: - 50 x1,5_50 - p1 + p5 >= 0
 R318: 503 x1,5_50 - p1 + p5 <= 553
 R319: - 64 x1,5_64 - p1 + p5 >= 0
 R320: 503 x1,5_64 - p1 + p5 <= 567
 R321: - 66 x1,5_66 - p1 + p5 >= 0
 R322: 503 x1,5_66 - p1 + p5 <= 569
 R323: - 71 x1,5_71 - p1 + p5 >= 0
 R324: 503 x1,5_71 - p1 + p5 <= 574
 R325: p1 - p6 <= -1
 R326: - 5 x1,6_5 - p1 + p6 >= 0
 R327: 503 x1,6_5 - p1 + p6 <= 508
 R328: - 7 x1,6_7 - p1 + p6 >= 0
 R329: 503 x1,6_7 - p1 + p6 <= 510
 R330: - 18 x1,6_18 - p1 + p6 >= 0
 R331: 503 x1,6_18 - p1 + p6 <= 521
 R332: - 20 x1,6_20 - p1 + p6 >= 0
 R333: 503 x1,6_20 - p1 + p6 <= 523
 R334: - 21 x1,6_21 - p1 + p6 >= 0
 R335: 503 x1,6_21 - p1 + p6 <= 524
 R336: - 24 x1,6_24 - p1 + p6 >= 0
 R337: 503 x1,6_24 - p1 + p6 <= 527
 R338: - 29 x1,6_29 - p1 + p6 >= 0
 R339: 503 x1,6_29 - p1 + p6 <= 532
 R340: - 39 x1,6_39 - p1 + p6 >= 0
 R341: 503 x1,6_39 - p1 + p6 <= 542
 R342: - 44 x1,6_44 - p1 + p6 >= 0
 R343: 503 x1,6_44 - p1 + p6 <= 547
 R344: - 45 x1,6_45 - p1 + p6 >= 0
 R345: 503 x1,6_45 - p1 + p6 <= 548
 R346: - 50 x1,6_50 - p1 + p6 >= 0
 R347: 503 x1,6_50 - p1 + p6 <= 553
 R348: - 64 x1,6_64 - p1 + p6 >= 0
 R349: 503 x1,6_64 - p1 + p6 <= 567
 R350: - 66 x1,6_66 - p1 + p6 >= 0
 R351: 503 x1,6_66 - p1 + p6 <= 569
 R352: - 71 x1,6_71 - p1 + p6 >= 0
 R353: 503 x1,6_71 - p1 + p6 <= 574
 R354: p2 - p3 <= -1
 R355: - 5 x2,3_5 - p2 + p3 >= 0
 R356: 503 x2,3_5 - p2 + p3 <= 508
 R357: - 7 x2,3_7 - p2 + p3 >= 0
 R358: 503 x2,3_7 - p2 + p3 <= 510
 R359: - 18 x2,3_18 - p2 + p3 >= 0
 R360: 503 x2,3_18 - p2 + p3 <= 521
 R361: - 20 x2,3_20 - p2 + p3 >= 0
 R362: 503 x2,3_20 - p2 + p3 <= 523
 R363: - 21 x2,3_21 - p2 + p3 >= 0
 R364: 503 x2,3_21 - p2 + p3 <= 524
 R365: - 24 x2,3_24 - p2 + p3 >= 0
 R366: 503 x2,3_24 - p2 + p3 <= 527
 R367: - 29 x2,3_29 - p2 + p3 >= 0
 R368: 503 x2,3_29 - p2 + p3 <= 532
 R369: - 39 x2,3_39 - p2 + p3 >= 0
 R370: 503 x2,3_39 - p2 + p3 <= 542
 R371: - 44 x2,3_44 - p2 + p3 >= 0
 R372: 503 x2,3_44 - p2 + p3 <= 547
 R373: - 45 x2,3_45 - p2 + p3 >= 0
 R374: 503 x2,3_45 - p2 + p3 <= 548
 R375: - 50 x2,3_50 - p2 + p3 >= 0
 R376: 503 x2,3_50 - p2 + p3 <= 553
 R377: - 64 x2,3_64 - p2 + p3 >= 0
 R378: 503 x2,3_64 - p2 + p3 <= 567
 R379: - 66 x2,3_66 - p2 + p3 >= 0
 R380: 503 x2,3_66 - p2 + p3 <= 569
 R381: - 71 x2,3_71 - p2 + p3 >= 0
 R382: 503 x2,3_71 - p2 + p3 <= 574
 R383: p2 - p4 <= -1
 R384: - 5 x2,4_5 - p2 + p4 >= 0
 R385: 503 x2,4_5 - p2 + p4 <= 508
 R386: - 7 x2,4_7 - p2 + p4 >= 0
 R387: 503 x2,4_7 - p2 + p4 <= 510
 R388: - 18 x2,4_18 - p2 + p4 >= 0
 R389: 503 x2,4_18 - p2 + p4 <= 521
 R390: - 20 x2,4_20 - p2 + p4 >= 0
 R391: 503 x2,4_20 - p2 + p4 <= 523
 R392: - 21 x2,4_21 - p2 + p4 >= 0
 R393: 503 x2,4_21 - p2 + p4 <= 524
 R394: - 24 x2,4_24 - p2 + p4 >= 0
 R395: 503 x2,4_24 - p2 + p4 <= 527
 R396: - 29 x2,4_29 - p2 + p4 >= 0
 R397: 503 x2,4_29 - p2 + p4 <= 532
 R398: - 39 x2,4_39 - p2 + p4 >= 0
 R399: 503 x2,4_39 - p2 + p4 <= 542
 R400: - 44 x2,4_44 - p2 + p4 >= 0
 R401: 503 x2,4_44 - p2 + p4 <= 547
 R402: - 45 x2,4_45 - p2 + p4 >= 0
 R403: 503 x2,4_45 - p2 + p4 <= 548
 R404: - 50 x2,4_50 - p2 + p4 >= 0
 R405: 503 x2,4_50 - p2 + p4 <= 553
 R406: - 64 x2,4_64 - p2 + p4 >= 0
 R407: 503 x2,4_64 - p2 + p4 <= 567
 R408: - 66 x2,4_66 - p2 + p4 >= 0
 R409: 503 x2,4_66 - p2 + p4 <= 569
 R410: - 71 x2,4_71 - p2 + p4 >= 0
 R411: 503 x2,4_71 - p2 + p4 <= 574
 R412: p2 - p5 <= -1
 R413: - 5 x2,5_5 - p2 + p5 >= 0
 R414: 503 x2,5_5 - p2 + p5 <= 508
 R415: - 7 x2,5_7 - p2 + p5 >= 0
 R416: 503 x2,5_7 - p2 + p5 <= 510
 R417: - 18 x2,5_18 - p2 + p5 >= 0
 R418: 503 x2,5_18 - p2 + p5 <= 521
 R419: - 20 x2,5_20 - p2 + p5 >= 0
 R420: 503 x2,5_20 - p2 + p5 <= 523
 R421: - 21 x2,5_21 - p2 + p5 >= 0
 R422: 503 x2,5_21 - p2 + p5 <= 524
 R423: - 24 x2,5_24 - p2 + p5 >= 0
 R424: 503 x2,5_24 - p2 + p5 <= 527
 R425: - 29 x2,5_29 - p2 + p5 >= 0
 R426: 503 x2,5_29 - p2 + p5 <= 532
 R427: - 39 x2,5_39 - p2 + p5 >= 0
 R428: 503 x2,5_39 - p2 + p5 <= 542
 R429: - 44 x2,5_44 - p2 + p5 >= 0
 R430: 503 x2,5_44 - p2 + p5 <= 547
 R431: - 45 x2,5_45 - p2 + p5 >= 0
 R432: 503 x2,5_45 - p2 + p5 <= 548
 R433: - 50 x2,5_50 - p2 + p5 >= 0
 R434: 503 x2,5_50 - p2 + p5 <= 553
 R435: - 64 x2,5_64 - p2 + p5 >= 0
 R436: 503 x2,5_64 - p2 + p5 <= 567
 R437: - 66 x2,5_66 - p2 + p5 >= 0
 R438: 503 x2,5_66 - p2 + p5 <= 569
 R439: - 71 x2,5_71 - p2 + p5 >= 0
 R440: 503 x2,5_71 - p2 + p5 <= 574
 R441: p2 - p6 <= -1
 R442: - 5 x2,6_5 - p2 + p6 >= 0
 R443: 503 x2,6_5 - p2 + p6 <= 508
 R444: - 7 x2,6_7 - p2 + p6 >= 0
 R445: 503 x2,6_7 - p2 + p6 <= 510
 R446: - 18 x2,6_18 - p2 + p6 >= 0
 R447: 503 x2,6_18 - p2 + p6 <= 521
 R448: - 20 x2,6_20 - p2 + p6 >= 0
 R449: 503 x2,6_20 - p2 + p6 <= 523
 R450: - 21 x2,6_21 - p2 + p6 >= 0
 R451: 503 x2,6_21 - p2 + p6 <= 524
 R452: - 24 x2,6_24 - p2 + p6 >= 0
 R453: 503 x2,6_24 - p2 + p6 <= 527
 R454: - 29 x2,6_29 - p2 + p6 >= 0
 R455: 503 x2,6_29 - p2 + p6 <= 532
 R456: - 39 x2,6_39 - p2 + p6 >= 0
 R457: 503 x2,6_39 - p2 + p6 <= 542
 R458: - 44 x2,6_44 - p2 + p6 >= 0
 R459: 503 x2,6_44 - p2 + p6 <= 547
 R460: - 45 x2,6_45 - p2 + p6 >= 0
 R461: 503 x2,6_45 - p2 + p6 <= 548
 R462: - 50 x2,6_50 - p2 + p6 >= 0
 R463: 503 x2,6_50 - p2 + p6 <= 553
 R464: - 64 x2,6_64 - p2 + p6 >= 0
 R465: 503 x2,6_64 - p2 + p6 <= 567
 R466: - 66 x2,6_66 - p2 + p6 >= 0
 R467: 503 x2,6_66 - p2 + p6 <= 569
 R468: - 71 x2,6_71 - p2 + p6 >= 0
 R469: 503 x2,6_71 - p2 + p6 <= 574
 R470: p3 - p4 <= -1
 R471: - 5 x3,4_5 - p3 + p4 >= 0
 R472: 503 x3,4_5 - p3 + p4 <= 508
 R473: - 7 x3,4_7 - p3 + p4 >= 0
 R474: 503 x3,4_7 - p3 + p4 <= 510
 R475: - 18 x3,4_18 - p3 + p4 >= 0
 R476: 503 x3,4_18 - p3 + p4 <= 521
 R477: - 20 x3,4_20 - p3 + p4 >= 0
 R478: 503 x3,4_20 - p3 + p4 <= 523
 R479: - 21 x3,4_21 - p3 + p4 >= 0
 R480: 503 x3,4_21 - p3 + p4 <= 524
 R481: - 24 x3,4_24 - p3 + p4 >= 0
 R482: 503 x3,4_24 - p3 + p4 <= 527
 R483: - 29 x3,4_29 - p3 + p4 >= 0
 R484: 503 x3,4_29 - p3 + p4 <= 532
 R485: - 39 x3,4_39 - p3 + p4 >= 0
 R486: 503 x3,4_39 - p3 + p4 <= 542
 R487: - 44 x3,4_44 - p3 + p4 >= 0
 R488: 503 x3,4_44 - p3 + p4 <= 547
 R489: - 45 x3,4_45 - p3 + p4 >= 0
 R490: 503 x3,4_45 - p3 + p4 <= 548
 R491: - 50 x3,4_50 - p3 + p4 >= 0
 R492: 503 x3,4_50 - p3 + p4 <= 553
 R493: - 64 x3,4_64 - p3 + p4 >= 0
 R494: 503 x3,4_64 - p3 + p4 <= 567
 R495: - 66 x3,4_66 - p3 + p4 >= 0
 R496: 503 x3,4_66 - p3 + p4 <= 569
 R497: - 71 x3,4_71 - p3 + p4 >= 0
 R498: 503 x3,4_71 - p3 + p4 <= 574
 R499: p3 - p5 <= -1
 R500: - 5 x3,5_5 - p3 + p5 >= 0
 R501: 503 x3,5_5 - p3 + p5 <= 508
 R502: - 7 x3,5_7 - p3 + p5 >= 0
 R503: 503 x3,5_7 - p3 + p5 <= 510
 R504: - 18 x3,5_18 - p3 + p5 >= 0
 R505: 503 x3,5_18 - p3 + p5 <= 521
 R506: - 20 x3,5_20 - p3 + p5 >= 0
 R507: 503 x3,5_20 - p3 + p5 <= 523
 R508: - 21 x3,5_21 - p3 + p5 >= 0
 R509: 503 x3,5_21 - p3 + p5 <= 524
 R510: - 24 x3,5_24 - p3 + p5 >= 0
 R511: 503 x3,5_24 - p3 + p5 <= 527
 R512: - 29 x3,5_29 - p3 + p5 >= 0
 R513: 503 x3,5_29 - p3 + p5 <= 532
 R514: - 39 x3,5_39 - p3 + p5 >= 0
 R515: 503 x3,5_39 - p3 + p5 <= 542
 R516: - 44 x3,5_44 - p3 + p5 >= 0
 R517: 503 x3,5_44 - p3 + p5 <= 547
 R518: - 45 x3,5_45 - p3 + p5 >= 0
 R519: 503 x3,5_45 - p3 + p5 <= 548
 R520: - 50 x3,5_50 - p3 + p5 >= 0
 R521: 503 x3,5_50 - p3 + p5 <= 553
 R522: - 64 x3,5_64 - p3 + p5 >= 0
 R523: 503 x3,5_64 - p3 + p5 <= 567
 R524: - 66 x3,5_66 - p3 + p5 >= 0
 R525: 503 x3,5_66 - p3 + p5 <= 569
 R526: - 71 x3,5_71 - p3 + p5 >= 0
 R527: 503 x3,5_71 - p3 + p5 <= 574
 R528: p3 - p6 <= -1
 R529: - 5 x3,6_5 - p3 + p6 >= 0
 R530: 503 x3,6_5 - p3 + p6 <= 508
 R531: - 7 x3,6_7 - p3 + p6 >= 0
 R532: 503 x3,6_7 - p3 + p6 <= 510
 R533: - 18 x3,6_18 - p3 + p6 >= 0
 R534: 503 x3,6_18 - p3 + p6 <= 521
 R535: - 20 x3,6_20 - p3 + p6 >= 0
 R536: 503 x3,6_20 - p3 + p6 <= 523
 R537: - 21 x3,6_21 - p3 + p6 >= 0
 R538: 503 x3,6_21 - p3 + p6 <= 524
 R539: - 24 x3,6_24 - p3 + p6 >= 0
 R540: 503 x3,6_24 - p3 + p6 <= 527
 R541: - 29 x3,6_29 - p3 + p6 >= 0
 R542: 503 x3,6_29 - p3 + p6 <= 532
 R543: - 39 x3,6_39 - p3 + p6 >= 0
 R544: 503 x3,6_39 - p3 + p6 <= 542
 R545: - 44 x3,6_44 - p3 + p6 >= 0
 R546: 503 x3,6_44 - p3 + p6 <= 547
 R547: - 45 x3,6_45 - p3 + p6 >= 0
 R548: 503 x3,6_45 - p3 + p6 <= 548
 R549: - 50 x3,6_50 - p3 + p6 >= 0
 R550: 503 x3,6_50 - p3 + p6 <= 553
 R551: - 64 x3,6_64 - p3 + p6 >= 0
 R552: 503 x3,6_64 - p3 + p6 <= 567
 R553: - 66 x3,6_66 - p3 + p6 >= 0
 R554: 503 x3,6_66 - p3 + p6 <= 569
 R555: - 71 x3,6_71 - p3 + p6 >= 0
 R556: 503 x3,6_71 - p3 + p6 <= 574
 R557: p4 - p5 <= -1
 R558: - 5 x4,5_5 - p4 + p5 >= 0
 R559: 503 x4,5_5 - p4 + p5 <= 508
 R560: - 7 x4,5_7 - p4 + p5 >= 0
 R561: 503 x4,5_7 - p4 + p5 <= 510
 R562: - 18 x4,5_18 - p4 + p5 >= 0
 R563: 503 x4,5_18 - p4 + p5 <= 521
 R564: - 20 x4,5_20 - p4 + p5 >= 0
 R565: 503 x4,5_20 - p4 + p5 <= 523
 R566: - 21 x4,5_21 - p4 + p5 >= 0
 R567: 503 x4,5_21 - p4 + p5 <= 524
 R568: - 24 x4,5_24 - p4 + p5 >= 0
 R569: 503 x4,5_24 - p4 + p5 <= 527
 R570: - 29 x4,5_29 - p4 + p5 >= 0
 R571: 503 x4,5_29 - p4 + p5 <= 532
 R572: - 39 x4,5_39 - p4 + p5 >= 0
 R573: 503 x4,5_39 - p4 + p5 <= 542
 R574: - 44 x4,5_44 - p4 + p5 >= 0
 R575: 503 x4,5_44 - p4 + p5 <= 547
 R576: - 45 x4,5_45 - p4 + p5 >= 0
 R577: 503 x4,5_45 - p4 + p5 <= 548
 R578: - 50 x4,5_50 - p4 + p5 >= 0
 R579: 503 x4,5_50 - p4 + p5 <= 553
 R580: - 64 x4,5_64 - p4 + p5 >= 0
 R581: 503 x4,5_64 - p4 + p5 <= 567
 R582: - 66 x4,5_66 - p4 + p5 >= 0
 R583: 503 x4,5_66 - p4 + p5 <= 569
 R584: - 71 x4,5_71 - p4 + p5 >= 0
 R585: 503 x4,5_71 - p4 + p5 <= 574
 R586: p4 - p6 <= -1
 R587: - 5 x4,6_5 - p4 + p6 >= 0
 R588: 503 x4,6_5 - p4 + p6 <= 508
 R589: - 7 x4,6_7 - p4 + p6 >= 0
 R590: 503 x4,6_7 - p4 + p6 <= 510
 R591: - 18 x4,6_18 - p4 + p6 >= 0
 R592: 503 x4,6_18 - p4 + p6 <= 521
 R593: - 20 x4,6_20 - p4 + p6 >= 0
 R594: 503 x4,6_20 - p4 + p6 <= 523
 R595: - 21 x4,6_21 - p4 + p6 >= 0
 R596: 503 x4,6_21 - p4 + p6 <= 524
 R597: - 24 x4,6_24 - p4 + p6 >= 0
 R598: 503 x4,6_24 - p4 + p6 <= 527
 R599: - 29 x4,6_29 - p4 + p6 >= 0
 R600: 503 x4,6_29 - p4 + p6 <= 532
 R601: - 39 x4,6_39 - p4 + p6 >= 0
 R602: 503 x4,6_39 - p4 + p6 <= 542
 R603: - 44 x4,6_44 - p4 + p6 >= 0
 R604: 503 x4,6_44 - p4 + p6 <= 547
 R605: - 45 x4,6_45 - p4 + p6 >= 0
 R606: 503 x4,6_45 - p4 + p6 <= 548
 R607: - 50 x4,6_50 - p4 + p6 >= 0
 R608: 503 x4,6_50 - p4 + p6 <= 553
 R609: - 64 x4,6_64 - p4 + p6 >= 0
 R610: 503 x4,6_64 - p4 + p6 <= 567
 R611: - 66 x4,6_66 - p4 + p6 >= 0
 R612: 503 x4,6_66 - p4 + p6 <= 569
 R613: - 71 x4,6_71 - p4 + p6 >= 0
 R614: 503 x4,6_71 - p4 + p6 <= 574
 R615: p5 - p6 <= -1
 R616: - 5 x5,6_5 - p5 + p6 >= 0
 R617: 503 x5,6_5 - p5 + p6 <= 508
 R618: - 7 x5,6_7 - p5 + p6 >= 0
 R619: 503 x5,6_7 - p5 + p6 <= 510
 R620: - 18 x5,6_18 - p5 + p6 >= 0
 R621: 503 x5,6_18 - p5 + p6 <= 521
 R622: - 20 x5,6_20 - p5 + p6 >= 0
 R623: 503 x5,6_20 - p5 + p6 <= 523
 R624: - 21 x5,6_21 - p5 + p6 >= 0
 R625: 503 x5,6_21 - p5 + p6 <= 524
 R626: - 24 x5,6_24 - p5 + p6 >= 0
 R627: 503 x5,6_24 - p5 + p6 <= 527
 R628: - 29 x5,6_29 - p5 + p6 >= 0
 R629: 503 x5,6_29 - p5 + p6 <= 532
 R630: - 39 x5,6_39 - p5 + p6 >= 0
 R631: 503 x5,6_39 - p5 + p6 <= 542
 R632: - 44 x5,6_44 - p5 + p6 >= 0
 R633: 503 x5,6_44 - p5 + p6 <= 547
 R634: - 45 x5,6_45 - p5 + p6 >= 0
 R635: 503 x5,6_45 - p5 + p6 <= 548
 R636: - 50 x5,6_50 - p5 + p6 >= 0
 R637: 503 x5,6_50 - p5 + p6 <= 553
 R638: - 64 x5,6_64 - p5 + p6 >= 0
 R639: 503 x5,6_64 - p5 + p6 <= 567
 R640: - 66 x5,6_66 - p5 + p6 >= 0
 R641: 503 x5,6_66 - p5 + p6 <= 569
 R642: - 71 x5,6_71 - p5 + p6 >= 0
 R643: 503 x5,6_71 - p5 + p6 <= 574
Bounds
Binaries
 x0,1_5 x0,1_7 x0,1_18 x0,1_20 x0,1_21 x0,1_24 x0,1_29 x0,1_39 x0,1_44
 x0,1_45 x0,1_50 x0,1_64 x0,1_66 x0,1_71 x0,2_5 x0,2_7 x0,2_18 x0,2_20
 x0,2_21 x0,2_24 x0,2_29 x0,2_39 x0,2_44 x0,2_45 x0,2_50 x0,2_64 x0,2_66
 x0,2_71 x0,3_5 x0,3_7 x0,3_18 x0,3_20 x0,3_21 x0,3_24 x0,3_29 x0,3_39
 x0,3_44 x0,3_45 x0,3_50 x0,3_64 x0,3_66 x0,3_71 x0,4_5 x0,4_7 x0,4_18
 x0,4_20 x0,4_21 x0,4_24 x0,4_29 x0,4_39 x0,4_44 x0,4_45 x0,4_50 x0,4_64
 x0,4_66 x0,4_71 x0,5_5 x0,5_7 x0,5_18 x0,5_20 x0,5_21 x0,5_24 x0,5_29
 x0,5_39 x0,5_44 x0,5_45 x0,5_50 x0,5_64 x0,5_66 x0,5_71 x0,6_5 x0,6_7
 x0,6_18 x0,6_20 x0,6_21 x0,6_24 x0,6_29 x0,6_39 x0,6_44 x0,6_45 x0,6_50
 x0,6_64 x0,6_66 x0,6_71 x1,2_5 x1,2_7 x1,2_18 x1,2_20 x1,2_21 x1,2_24
 x1,2_29 x1,2_39 x1,2_44 x1,2_45 x1,2_50 x1,2_64 x1,2_66 x1,2_71 x1,3_5
 x1,3_7 x1,3_18 x1,3_20 x1,3_21 x1,3_24 x1,3_29 x1,3_39 x1,3_44 x1,3_45
 x1,3_50 x1,3_64 x1,3_66 x1,3_71 x1,4_5 x1,4_7 x1,4_18 x1,4_20 x1,4_21
 x1,4_24 x1,4_29 x1,4_39 x1,4_44 x1,4_45 x1,4_50 x1,4_64 x1,4_66 x1,4_71
 x1,5_5 x1,5_7 x1,5_18 x1,5_20 x1,5_21 x1,5_24 x1,5_29 x1,5_39 x1,5_44
 x1,5_45 x1,5_50 x1,5_64 x1,5_66 x1,5_71 x1,6_5 x1,6_7 x1,6_18 x1,6_20
 x1,6_21 x1,6_24 x1,6_29 x1,6_39 x1,6_44 x1,6_45 x1,6_50 x1,6_64 x1,6_66
 x1,6_71 x2,3_5 x2,3_7 x2,3_18 x2,3_20 x2,3_21 x2,3_24 x2,3_29 x2,3_39
 x2,3_44 x2,3_45 x2,3_50 x2,3_64 x2,3_66 x2,3_71 x2,4_5 x2,4_7 x2,4_18
 x2,4_20 x2,4_21 x2,4_24 x2,4_29 x2,4_39 x2,4_44 x2,4_45 x2,4_50 x2,4_64
 x2,4_66 x2,4_71 x2,5_5 x2,5_7 x2,5_18 x2,5_20 x2,5_21 x2,5_24 x2,5_29
 x2,5_39 x2,5_44 x2,5_45 x2,5_50 x2,5_64 x2,5_66 x2,5_71 x2,6_5 x2,6_7
 x2,6_18 x2,6_20 x2,6_21 x2,6_24 x2,6_29 x2,6_39 x2,6_44 x2,6_45 x2,6_50
 x2,6_64 x2,6_66 x2,6_71 x3,4_5 x3,4_7 x3,4_18 x3,4_20 x3,4_21 x3,4_24
 x3,4_29 x3,4_39 x3,4_44 x3,4_45 x3,4_50 x3,4_64 x3,4_66 x3,4_71 x3,5_5
 x3,5_7 x3,5_18 x3,5_20 x3,5_21 x3,5_24 x3,5_29 x3,5_39 x3,5_44 x3,5_45
 x3,5_50 x3,5_64 x3,5_66 x3,5_71 x3,6_5 x3,6_7 x3,6_18 x3,6_20 x3,6_21
 x3,6_24 x3,6_29 x3,6_39 x3,6_44 x3,6_45 x3,6_50 x3,6_64 x3,6_66 x3,6_71
 x4,5_5 x4,5_7 x4,5_18 x4,5_20 x4,5_21 x4,5_24 x4,5_29 x4,5_39 x4,5_44
 x4,5_45 x4,5_50 x4,5_64 x4,5_66 x4,5_71 x4,6_5 x4,6_7 x4,6_18 x4,6_20
 x4,6_21 x4,6_24 x4,6_29 x4,6_39 x4,6_44 x4,6_45 x4,6_50 x4,6_64 x4,6_66
 x4,6_71 x5,6_5 x5,6_7 x5,6_18 x5,6_20 x5,6_21 x5,6_24 x5,6_29 x5,6_39
 x5,6_44 x5,6_45 x5,6_50 x5,6_64 x5,6_66 x5,6_71
Generals
 p0 p1 p2 p3 p4 p5 p6
End
